benchmark/results/graph__10-1000-0.10-02_8/error_log/graph__10-1000-0.10-02_8_Quinton_Benders_master_ERRORLOG.lp
\ This file has been generated by DOcplex
\ ENCODING=ISO-8859-1
\Problem name: Quinton Benders_master

Maximize
 obj: z
Subject To
 c1: m_a0_proc_0 + m_a0_proc_1 = 1
 c2: m_a1_proc_0 + m_a1_proc_1 = 1
 c3: m_a2_proc_0 + m_a2_proc_1 = 1
 c4: m_a3_proc_1 = 1
 c5: m_a4_proc_0 + m_a4_proc_1 = 1
 c6: m_a5_proc_0 + m_a5_proc_1 = 1
 c7: m_a6_proc_0 + m_a6_proc_1 = 1
 c8: m_a7_proc_0 + m_a7_proc_1 = 1
 c9: m_a8_proc_0 + m_a8_proc_1 = 1
 c10: m_a9_proc_0 + m_a9_proc_1 = 1
 c11: K_a0_a1 + K_a1_a0 = 1
 c12: K_a0_a1 + K_a1_a0 = 1
 c13: K_a0_a2 + K_a2_a0 = 1
 c14: K_a0_a2 + K_a2_a0 = 1
 c15: K_a0_a3 + K_a3_a0 = 1
 c16: K_a0_a3 + K_a3_a0 = 1
 c17: K_a0_a4 + K_a4_a0 = 1
 c18: K_a0_a4 + K_a4_a0 = 1
 c19: K_a0_a5 + K_a5_a0 = 1
 c20: K_a0_a5 + K_a5_a0 = 1
 c21: K_a0_a6 + K_a6_a0 = 1
 c22: K_a0_a6 + K_a6_a0 = 1
 c23: K_a0_a7 + K_a7_a0 = 1
 c24: K_a0_a7 + K_a7_a0 = 1
 c25: K_a0_a8 + K_a8_a0 = 1
 c26: K_a0_a8 + K_a8_a0 = 1
 c27: K_a0_a9 + K_a9_a0 = 1
 c28: K_a0_a9 + K_a9_a0 = 1
 c29: K_a1_a2 + K_a2_a1 = 1
 c30: K_a1_a2 + K_a2_a1 = 1
 c31: K_a1_a3 + K_a3_a1 = 1
 c32: K_a1_a3 + K_a3_a1 = 1
 c33: K_a1_a4 + K_a4_a1 = 1
 c34: K_a1_a4 + K_a4_a1 = 1
 c35: K_a1_a5 + K_a5_a1 = 1
 c36: K_a1_a5 + K_a5_a1 = 1
 c37: K_a1_a6 + K_a6_a1 = 1
 c38: K_a1_a6 + K_a6_a1 = 1
 c39: K_a1_a7 + K_a7_a1 = 1
 c40: K_a1_a7 + K_a7_a1 = 1
 c41: K_a1_a8 + K_a8_a1 = 1
 c42: K_a1_a8 + K_a8_a1 = 1
 c43: K_a1_a9 + K_a9_a1 = 1
 c44: K_a1_a9 + K_a9_a1 = 1
 c45: K_a2_a3 + K_a3_a2 = 1
 c46: K_a2_a3 + K_a3_a2 = 1
 c47: K_a2_a4 + K_a4_a2 = 1
 c48: K_a2_a4 + K_a4_a2 = 1
 c49: K_a2_a5 + K_a5_a2 = 1
 c50: K_a2_a5 + K_a5_a2 = 1
 c51: K_a2_a6 + K_a6_a2 = 1
 c52: K_a2_a6 + K_a6_a2 = 1
 c53: K_a2_a7 + K_a7_a2 = 1
 c54: K_a2_a7 + K_a7_a2 = 1
 c55: K_a2_a8 + K_a8_a2 = 1
 c56: K_a2_a8 + K_a8_a2 = 1
 c57: K_a2_a9 + K_a9_a2 = 1
 c58: K_a2_a9 + K_a9_a2 = 1
 c59: K_a3_a4 + K_a4_a3 = 1
 c60: K_a3_a4 + K_a4_a3 = 1
 c61: K_a3_a5 + K_a5_a3 = 1
 c62: K_a3_a5 + K_a5_a3 = 1
 c63: K_a3_a6 + K_a6_a3 = 1
 c64: K_a3_a6 + K_a6_a3 = 1
 c65: K_a3_a7 + K_a7_a3 = 1
 c66: K_a3_a7 + K_a7_a3 = 1
 c67: K_a3_a8 + K_a8_a3 = 1
 c68: K_a3_a8 + K_a8_a3 = 1
 c69: K_a3_a9 + K_a9_a3 = 1
 c70: K_a3_a9 + K_a9_a3 = 1
 c71: K_a4_a5 + K_a5_a4 = 1
 c72: K_a4_a5 + K_a5_a4 = 1
 c73: K_a4_a6 + K_a6_a4 = 1
 c74: K_a4_a6 + K_a6_a4 = 1
 c75: K_a4_a7 + K_a7_a4 = 1
 c76: K_a4_a7 + K_a7_a4 = 1
 c77: K_a4_a8 + K_a8_a4 = 1
 c78: K_a4_a8 + K_a8_a4 = 1
 c79: K_a4_a9 + K_a9_a4 = 1
 c80: K_a4_a9 + K_a9_a4 = 1
 c81: K_a5_a6 + K_a6_a5 = 1
 c82: K_a5_a6 + K_a6_a5 = 1
 c83: K_a5_a7 + K_a7_a5 = 1
 c84: K_a5_a7 + K_a7_a5 = 1
 c85: K_a5_a8 + K_a8_a5 = 1
 c86: K_a5_a8 + K_a8_a5 = 1
 c87: K_a5_a9 + K_a9_a5 = 1
 c88: K_a5_a9 + K_a9_a5 = 1
 c89: K_a6_a7 + K_a7_a6 = 1
 c90: K_a6_a7 + K_a7_a6 = 1
 c91: K_a6_a8 + K_a8_a6 = 1
 c92: K_a6_a8 + K_a8_a6 = 1
 c93: K_a6_a9 + K_a9_a6 = 1
 c94: K_a6_a9 + K_a9_a6 = 1
 c95: K_a7_a8 + K_a8_a7 = 1
 c96: K_a7_a8 + K_a8_a7 = 1
 c97: K_a7_a9 + K_a9_a7 = 1
 c98: K_a7_a9 + K_a9_a7 = 1
 c99: K_a8_a9 + K_a9_a8 = 1
 c100: K_a8_a9 + K_a9_a8 = 1
 c101: z <= 99999999989999992832
 c102: - 1221 m_a0_proc_0 + w_a8 - w_a0 >= -1220.947409656253
 c103: - 1221 m_a0_proc_0 + w_a9 - w_a0 >= -1220.947409656253
 c104: K_a0_a1 - 1221 m_a0_proc_0 - 1221 m_a1_proc_0 + w_a1 - w_a0 >= 
       -2441.947409656253
 c105: K_a0_a2 - 1221 m_a0_proc_0 - 1221 m_a2_proc_0 + w_a2 - w_a0 >= 
       -2441.947409656253
 c106: K_a0_a4 - 1221 m_a0_proc_0 - 1221 m_a4_proc_0 + w_a4 - w_a0 >= 
       -2441.947409656253
 c107: K_a0_a5 - 1221 m_a0_proc_0 - 1221 m_a5_proc_0 + w_a5 - w_a0 >= 
       -2441.947409656253
 c108: K_a0_a6 - 1221 m_a0_proc_0 - 1221 m_a6_proc_0 + w_a6 - w_a0 >= 
       -2441.947409656253
 c109: K_a0_a7 - 1221 m_a0_proc_0 - 1221 m_a7_proc_0 + w_a7 - w_a0 >= 
       -2441.947409656253
 c110: K_a0_a8 - 1221 m_a0_proc_0 - 1221 m_a8_proc_0 + w_a8 - w_a0 >= 
       -2441.947409656253
 c111: K_a0_a9 - 1221 m_a0_proc_0 - 1221 m_a9_proc_0 + w_a9 - w_a0 >= 
       -2441.947409656253
 c112: - 1221 m_a0_proc_1 + w_a8 - w_a0 >= -1220.915581235922
 c113: - 1221 m_a0_proc_1 + w_a9 - w_a0 >= -1220.915581235922
 c114: K_a0_a1 - 1221 m_a0_proc_1 - 1221 m_a1_proc_1 + w_a1 - w_a0 >= 
       -2441.915581235922
 c115: K_a0_a2 - 1221 m_a0_proc_1 - 1221 m_a2_proc_1 + w_a2 - w_a0 >= 
       -2441.915581235922
 c116: K_a0_a3 - 1221 m_a0_proc_1 - 1221 m_a3_proc_1 + w_a3 - w_a0 >= 
       -2441.915581235922
 c117: K_a0_a4 - 1221 m_a0_proc_1 - 1221 m_a4_proc_1 + w_a4 - w_a0 >= 
       -2441.915581235922
 c118: K_a0_a5 - 1221 m_a0_proc_1 - 1221 m_a5_proc_1 + w_a5 - w_a0 >= 
       -2441.915581235922
 c119: K_a0_a6 - 1221 m_a0_proc_1 - 1221 m_a6_proc_1 + w_a6 - w_a0 >= 
       -2441.915581235922
 c120: K_a0_a7 - 1221 m_a0_proc_1 - 1221 m_a7_proc_1 + w_a7 - w_a0 >= 
       -2441.915581235922
 c121: K_a0_a8 - 1221 m_a0_proc_1 - 1221 m_a8_proc_1 + w_a8 - w_a0 >= 
       -2441.915581235922
 c122: K_a0_a9 - 1221 m_a0_proc_1 - 1221 m_a9_proc_1 + w_a9 - w_a0 >= 
       -2441.915581235922
 c123: - 1221 m_a1_proc_0 + w_a0 - w_a1 >= -1221.905494075017
 c124: - 1221 m_a1_proc_0 + w_a7 - w_a1 >= -1221.905494075017
 c125: - 1221 m_a1_proc_0 + w_a4 - w_a1 >= -1221.905494075017
 c126: K_a1_a0 - 1221 m_a0_proc_0 - 1221 m_a1_proc_0 + w_a0 - w_a1 >= 
       -2441.905494075017
 c127: K_a1_a2 - 1221 m_a1_proc_0 - 1221 m_a2_proc_0 + w_a2 - w_a1 >= 
       -2441.905494075017
 c128: K_a1_a4 - 1221 m_a1_proc_0 - 1221 m_a4_proc_0 + w_a4 - w_a1 >= 
       -2441.905494075017
 c129: K_a1_a5 - 1221 m_a1_proc_0 - 1221 m_a5_proc_0 + w_a5 - w_a1 >= 
       -2441.905494075017
 c130: K_a1_a6 - 1221 m_a1_proc_0 - 1221 m_a6_proc_0 + w_a6 - w_a1 >= 
       -2441.905494075017
 c131: K_a1_a7 - 1221 m_a1_proc_0 - 1221 m_a7_proc_0 + w_a7 - w_a1 >= 
       -2441.905494075017
 c132: K_a1_a8 - 1221 m_a1_proc_0 - 1221 m_a8_proc_0 + w_a8 - w_a1 >= 
       -2441.905494075017
 c133: K_a1_a9 - 1221 m_a1_proc_0 - 1221 m_a9_proc_0 + w_a9 - w_a1 >= 
       -2441.905494075017
 c134: - 1221 m_a1_proc_1 + w_a0 - w_a1 >= -1221.901674664578
 c135: - 1221 m_a1_proc_1 + w_a7 - w_a1 >= -1221.901674664578
 c136: - 1221 m_a1_proc_1 + w_a4 - w_a1 >= -1221.901674664578
 c137: K_a1_a0 - 1221 m_a0_proc_1 - 1221 m_a1_proc_1 + w_a0 - w_a1 >= 
       -2441.901674664578
 c138: K_a1_a2 - 1221 m_a1_proc_1 - 1221 m_a2_proc_1 + w_a2 - w_a1 >= 
       -2441.901674664578
 c139: K_a1_a3 - 1221 m_a1_proc_1 - 1221 m_a3_proc_1 + w_a3 - w_a1 >= 
       -2441.901674664578
 c140: K_a1_a4 - 1221 m_a1_proc_1 - 1221 m_a4_proc_1 + w_a4 - w_a1 >= 
       -2441.901674664578
 c141: K_a1_a5 - 1221 m_a1_proc_1 - 1221 m_a5_proc_1 + w_a5 - w_a1 >= 
       -2441.901674664578
 c142: K_a1_a6 - 1221 m_a1_proc_1 - 1221 m_a6_proc_1 + w_a6 - w_a1 >= 
       -2441.901674664578
 c143: K_a1_a7 - 1221 m_a1_proc_1 - 1221 m_a7_proc_1 + w_a7 - w_a1 >= 
       -2441.901674664578
 c144: K_a1_a8 - 1221 m_a1_proc_1 - 1221 m_a8_proc_1 + w_a8 - w_a1 >= 
       -2441.901674664578
 c145: K_a1_a9 - 1221 m_a1_proc_1 - 1221 m_a9_proc_1 + w_a9 - w_a1 >= 
       -2441.901674664578
 c146: - 1221 m_a2_proc_0 + w_a0 - w_a2 >= -1221.904123004603
 c147: - 1221 m_a2_proc_0 + w_a3 - w_a2 >= -1220.904123004603
 c148: - 1221 m_a2_proc_0 >= -1221.904123004603
 c149: K_a2_a0 - 1221 m_a0_proc_0 - 1221 m_a2_proc_0 + w_a0 - w_a2 >= 
       -2441.904123004603
 c150: K_a2_a1 - 1221 m_a1_proc_0 - 1221 m_a2_proc_0 + w_a1 - w_a2 >= 
       -2441.904123004603
 c151: K_a2_a4 - 1221 m_a2_proc_0 - 1221 m_a4_proc_0 + w_a4 - w_a2 >= 
       -2441.904123004603
 c152: K_a2_a5 - 1221 m_a2_proc_0 - 1221 m_a5_proc_0 + w_a5 - w_a2 >= 
       -2441.904123004603
 c153: K_a2_a6 - 1221 m_a2_proc_0 - 1221 m_a6_proc_0 + w_a6 - w_a2 >= 
       -2441.904123004603
 c154: K_a2_a7 - 1221 m_a2_proc_0 - 1221 m_a7_proc_0 + w_a7 - w_a2 >= 
       -2441.904123004603
 c155: K_a2_a8 - 1221 m_a2_proc_0 - 1221 m_a8_proc_0 + w_a8 - w_a2 >= 
       -2441.904123004603
 c156: K_a2_a9 - 1221 m_a2_proc_0 - 1221 m_a9_proc_0 + w_a9 - w_a2 >= 
       -2441.904123004603
 c157: - 1221 m_a2_proc_1 + w_a0 - w_a2 >= -1221.910782489472
 c158: - 1221 m_a2_proc_1 + w_a3 - w_a2 >= -1220.910782489472
 c159: - 1221 m_a2_proc_1 >= -1221.910782489472
 c160: K_a2_a0 - 1221 m_a0_proc_1 - 1221 m_a2_proc_1 + w_a0 - w_a2 >= 
       -2441.910782489472
 c161: K_a2_a1 - 1221 m_a1_proc_1 - 1221 m_a2_proc_1 + w_a1 - w_a2 >= 
       -2441.910782489472
 c162: K_a2_a3 - 1221 m_a2_proc_1 - 1221 m_a3_proc_1 + w_a3 - w_a2 >= 
       -2441.910782489472
 c163: K_a2_a4 - 1221 m_a2_proc_1 - 1221 m_a4_proc_1 + w_a4 - w_a2 >= 
       -2441.910782489472
 c164: K_a2_a5 - 1221 m_a2_proc_1 - 1221 m_a5_proc_1 + w_a5 - w_a2 >= 
       -2441.910782489472
 c165: K_a2_a6 - 1221 m_a2_proc_1 - 1221 m_a6_proc_1 + w_a6 - w_a2 >= 
       -2441.910782489472
 c166: K_a2_a7 - 1221 m_a2_proc_1 - 1221 m_a7_proc_1 + w_a7 - w_a2 >= 
       -2441.910782489472
 c167: K_a2_a8 - 1221 m_a2_proc_1 - 1221 m_a8_proc_1 + w_a8 - w_a2 >= 
       -2441.910782489472
 c168: K_a2_a9 - 1221 m_a2_proc_1 - 1221 m_a9_proc_1 + w_a9 - w_a2 >= 
       -2441.910782489472
 c169: - 1221 m_a3_proc_1 + w_a6 - w_a3 >= -1220.905200274214
 c170: K_a3_a0 - 1221 m_a0_proc_1 - 1221 m_a3_proc_1 + w_a0 - w_a3 >= 
       -2441.905200274214
 c171: K_a3_a1 - 1221 m_a1_proc_1 - 1221 m_a3_proc_1 + w_a1 - w_a3 >= 
       -2441.905200274214
 c172: K_a3_a2 - 1221 m_a2_proc_1 - 1221 m_a3_proc_1 + w_a2 - w_a3 >= 
       -2441.905200274214
 c173: K_a3_a4 - 1221 m_a3_proc_1 - 1221 m_a4_proc_1 + w_a4 - w_a3 >= 
       -2441.905200274214
 c174: K_a3_a5 - 1221 m_a3_proc_1 - 1221 m_a5_proc_1 + w_a5 - w_a3 >= 
       -2441.905200274214
 c175: K_a3_a6 - 1221 m_a3_proc_1 - 1221 m_a6_proc_1 + w_a6 - w_a3 >= 
       -2441.905200274214
 c176: K_a3_a7 - 1221 m_a3_proc_1 - 1221 m_a7_proc_1 + w_a7 - w_a3 >= 
       -2441.905200274214
 c177: K_a3_a8 - 1221 m_a3_proc_1 - 1221 m_a8_proc_1 + w_a8 - w_a3 >= 
       -2441.905200274214
 c178: K_a3_a9 - 1221 m_a3_proc_1 - 1221 m_a9_proc_1 + w_a9 - w_a3 >= 
       -2441.905200274214
 c179: - 1221 m_a4_proc_0 + w_a2 - w_a4 >= -1220.913426696700
 c180: - 1221 m_a4_proc_0 + w_a1 - w_a4 >= -1220.913426696700
 c181: K_a4_a0 - 1221 m_a0_proc_0 - 1221 m_a4_proc_0 + w_a0 - w_a4 >= 
       -2441.913426696700
 c182: K_a4_a1 - 1221 m_a1_proc_0 - 1221 m_a4_proc_0 + w_a1 - w_a4 >= 
       -2441.913426696700
 c183: K_a4_a2 - 1221 m_a2_proc_0 - 1221 m_a4_proc_0 + w_a2 - w_a4 >= 
       -2441.913426696700
 c184: K_a4_a5 - 1221 m_a4_proc_0 - 1221 m_a5_proc_0 + w_a5 - w_a4 >= 
       -2441.913426696700
 c185: K_a4_a6 - 1221 m_a4_proc_0 - 1221 m_a6_proc_0 + w_a6 - w_a4 >= 
       -2441.913426696700
 c186: K_a4_a7 - 1221 m_a4_proc_0 - 1221 m_a7_proc_0 + w_a7 - w_a4 >= 
       -2441.913426696700
 c187: K_a4_a8 - 1221 m_a4_proc_0 - 1221 m_a8_proc_0 + w_a8 - w_a4 >= 
       -2441.913426696700
 c188: K_a4_a9 - 1221 m_a4_proc_0 - 1221 m_a9_proc_0 + w_a9 - w_a4 >= 
       -2441.913426696700
 c189: - 1221 m_a4_proc_1 + w_a2 - w_a4 >= -1220.912349427088
 c190: - 1221 m_a4_proc_1 + w_a1 - w_a4 >= -1220.912349427088
 c191: K_a4_a0 - 1221 m_a0_proc_1 - 1221 m_a4_proc_1 + w_a0 - w_a4 >= 
       -2441.912349427088
 c192: K_a4_a1 - 1221 m_a1_proc_1 - 1221 m_a4_proc_1 + w_a1 - w_a4 >= 
       -2441.912349427088
 c193: K_a4_a2 - 1221 m_a2_proc_1 - 1221 m_a4_proc_1 + w_a2 - w_a4 >= 
       -2441.912349427088
 c194: K_a4_a3 - 1221 m_a3_proc_1 - 1221 m_a4_proc_1 + w_a3 - w_a4 >= 
       -2441.912349427088
 c195: K_a4_a5 - 1221 m_a4_proc_1 - 1221 m_a5_proc_1 + w_a5 - w_a4 >= 
       -2441.912349427088
 c196: K_a4_a6 - 1221 m_a4_proc_1 - 1221 m_a6_proc_1 + w_a6 - w_a4 >= 
       -2441.912349427088
 c197: K_a4_a7 - 1221 m_a4_proc_1 - 1221 m_a7_proc_1 + w_a7 - w_a4 >= 
       -2441.912349427088
 c198: K_a4_a8 - 1221 m_a4_proc_1 - 1221 m_a8_proc_1 + w_a8 - w_a4 >= 
       -2441.912349427088
 c199: K_a4_a9 - 1221 m_a4_proc_1 - 1221 m_a9_proc_1 + w_a9 - w_a4 >= 
       -2441.912349427088
 c200: - 1221 m_a5_proc_0 + w_a1 - w_a5 >= -1220.916266771129
 c201: K_a5_a0 - 1221 m_a0_proc_0 - 1221 m_a5_proc_0 + w_a0 - w_a5 >= 
       -2441.916266771129
 c202: K_a5_a1 - 1221 m_a1_proc_0 - 1221 m_a5_proc_0 + w_a1 - w_a5 >= 
       -2441.916266771129
 c203: K_a5_a2 - 1221 m_a2_proc_0 - 1221 m_a5_proc_0 + w_a2 - w_a5 >= 
       -2441.916266771129
 c204: K_a5_a4 - 1221 m_a4_proc_0 - 1221 m_a5_proc_0 + w_a4 - w_a5 >= 
       -2441.916266771129
 c205: K_a5_a6 - 1221 m_a5_proc_0 - 1221 m_a6_proc_0 + w_a6 - w_a5 >= 
       -2441.916266771129
 c206: K_a5_a7 - 1221 m_a5_proc_0 - 1221 m_a7_proc_0 + w_a7 - w_a5 >= 
       -2441.916266771129
 c207: K_a5_a8 - 1221 m_a5_proc_0 - 1221 m_a8_proc_0 + w_a8 - w_a5 >= 
       -2441.916266771129
 c208: K_a5_a9 - 1221 m_a5_proc_0 - 1221 m_a9_proc_0 + w_a9 - w_a5 >= 
       -2441.916266771129
 c209: - 1221 m_a5_proc_1 + w_a1 - w_a5 >= -1220.885809421212
 c210: K_a5_a0 - 1221 m_a0_proc_1 - 1221 m_a5_proc_1 + w_a0 - w_a5 >= 
       -2441.885809421212
 c211: K_a5_a1 - 1221 m_a1_proc_1 - 1221 m_a5_proc_1 + w_a1 - w_a5 >= 
       -2441.885809421212
 c212: K_a5_a2 - 1221 m_a2_proc_1 - 1221 m_a5_proc_1 + w_a2 - w_a5 >= 
       -2441.885809421212
 c213: K_a5_a3 - 1221 m_a3_proc_1 - 1221 m_a5_proc_1 + w_a3 - w_a5 >= 
       -2441.885809421212
 c214: K_a5_a4 - 1221 m_a4_proc_1 - 1221 m_a5_proc_1 + w_a4 - w_a5 >= 
       -2441.885809421212
 c215: K_a5_a6 - 1221 m_a5_proc_1 - 1221 m_a6_proc_1 + w_a6 - w_a5 >= 
       -2441.885809421212
 c216: K_a5_a7 - 1221 m_a5_proc_1 - 1221 m_a7_proc_1 + w_a7 - w_a5 >= 
       -2441.885809421212
 c217: K_a5_a8 - 1221 m_a5_proc_1 - 1221 m_a8_proc_1 + w_a8 - w_a5 >= 
       -2441.885809421212
 c218: K_a5_a9 - 1221 m_a5_proc_1 - 1221 m_a9_proc_1 + w_a9 - w_a5 >= 
       -2441.885809421212
 c219: - 1221 m_a6_proc_0 + w_a3 - w_a6 >= -1221.923122123201
 c220: K_a6_a0 - 1221 m_a0_proc_0 - 1221 m_a6_proc_0 + w_a0 - w_a6 >= 
       -2441.923122123200
 c221: K_a6_a1 - 1221 m_a1_proc_0 - 1221 m_a6_proc_0 + w_a1 - w_a6 >= 
       -2441.923122123200
 c222: K_a6_a2 - 1221 m_a2_proc_0 - 1221 m_a6_proc_0 + w_a2 - w_a6 >= 
       -2441.923122123200
 c223: K_a6_a4 - 1221 m_a4_proc_0 - 1221 m_a6_proc_0 + w_a4 - w_a6 >= 
       -2441.923122123200
 c224: K_a6_a5 - 1221 m_a5_proc_0 - 1221 m_a6_proc_0 + w_a5 - w_a6 >= 
       -2441.923122123200
 c225: K_a6_a7 - 1221 m_a6_proc_0 - 1221 m_a7_proc_0 + w_a7 - w_a6 >= 
       -2441.923122123200
 c226: K_a6_a8 - 1221 m_a6_proc_0 - 1221 m_a8_proc_0 + w_a8 - w_a6 >= 
       -2441.923122123200
 c227: K_a6_a9 - 1221 m_a6_proc_0 - 1221 m_a9_proc_0 + w_a9 - w_a6 >= 
       -2441.923122123200
 c228: - 1221 m_a6_proc_1 + w_a3 - w_a6 >= -1221.880423073156
 c229: K_a6_a0 - 1221 m_a0_proc_1 - 1221 m_a6_proc_1 + w_a0 - w_a6 >= 
       -2441.880423073156
 c230: K_a6_a1 - 1221 m_a1_proc_1 - 1221 m_a6_proc_1 + w_a1 - w_a6 >= 
       -2441.880423073156
 c231: K_a6_a2 - 1221 m_a2_proc_1 - 1221 m_a6_proc_1 + w_a2 - w_a6 >= 
       -2441.880423073156
 c232: K_a6_a3 - 1221 m_a3_proc_1 - 1221 m_a6_proc_1 + w_a3 - w_a6 >= 
       -2441.880423073156
 c233: K_a6_a4 - 1221 m_a4_proc_1 - 1221 m_a6_proc_1 + w_a4 - w_a6 >= 
       -2441.880423073156
 c234: K_a6_a5 - 1221 m_a5_proc_1 - 1221 m_a6_proc_1 + w_a5 - w_a6 >= 
       -2441.880423073156
 c235: K_a6_a7 - 1221 m_a6_proc_1 - 1221 m_a7_proc_1 + w_a7 - w_a6 >= 
       -2441.880423073156
 c236: K_a6_a8 - 1221 m_a6_proc_1 - 1221 m_a8_proc_1 + w_a8 - w_a6 >= 
       -2441.880423073156
 c237: K_a6_a9 - 1221 m_a6_proc_1 - 1221 m_a9_proc_1 + w_a9 - w_a6 >= 
       -2441.880423073156
 c238: - 1221 m_a7_proc_0 + w_a4 - w_a7 >= -1220.923513857605
 c239: K_a7_a0 - 1221 m_a0_proc_0 - 1221 m_a7_proc_0 + w_a0 - w_a7 >= 
       -2441.923513857605
 c240: K_a7_a1 - 1221 m_a1_proc_0 - 1221 m_a7_proc_0 + w_a1 - w_a7 >= 
       -2441.923513857605
 c241: K_a7_a2 - 1221 m_a2_proc_0 - 1221 m_a7_proc_0 + w_a2 - w_a7 >= 
       -2441.923513857605
 c242: K_a7_a4 - 1221 m_a4_proc_0 - 1221 m_a7_proc_0 + w_a4 - w_a7 >= 
       -2441.923513857605
 c243: K_a7_a5 - 1221 m_a5_proc_0 - 1221 m_a7_proc_0 + w_a5 - w_a7 >= 
       -2441.923513857605
 c244: K_a7_a6 - 1221 m_a6_proc_0 - 1221 m_a7_proc_0 + w_a6 - w_a7 >= 
       -2441.923513857605
 c245: K_a7_a8 - 1221 m_a7_proc_0 - 1221 m_a8_proc_0 + w_a8 - w_a7 >= 
       -2441.923513857605
 c246: K_a7_a9 - 1221 m_a7_proc_0 - 1221 m_a9_proc_0 + w_a9 - w_a7 >= 
       -2441.923513857605
 c247: - 1221 m_a7_proc_1 + w_a4 - w_a7 >= -1220.886690823622
 c248: K_a7_a0 - 1221 m_a0_proc_1 - 1221 m_a7_proc_1 + w_a0 - w_a7 >= 
       -2441.886690823621
 c249: K_a7_a1 - 1221 m_a1_proc_1 - 1221 m_a7_proc_1 + w_a1 - w_a7 >= 
       -2441.886690823621
 c250: K_a7_a2 - 1221 m_a2_proc_1 - 1221 m_a7_proc_1 + w_a2 - w_a7 >= 
       -2441.886690823621
 c251: K_a7_a3 - 1221 m_a3_proc_1 - 1221 m_a7_proc_1 + w_a3 - w_a7 >= 
       -2441.886690823621
 c252: K_a7_a4 - 1221 m_a4_proc_1 - 1221 m_a7_proc_1 + w_a4 - w_a7 >= 
       -2441.886690823621
 c253: K_a7_a5 - 1221 m_a5_proc_1 - 1221 m_a7_proc_1 + w_a5 - w_a7 >= 
       -2441.886690823621
 c254: K_a7_a6 - 1221 m_a6_proc_1 - 1221 m_a7_proc_1 + w_a6 - w_a7 >= 
       -2441.886690823621
 c255: K_a7_a8 - 1221 m_a7_proc_1 - 1221 m_a8_proc_1 + w_a8 - w_a7 >= 
       -2441.886690823621
 c256: K_a7_a9 - 1221 m_a7_proc_1 - 1221 m_a9_proc_1 + w_a9 - w_a7 >= 
       -2441.886690823621
 c257: - 1221 m_a8_proc_0 + w_a1 - w_a8 >= -1220.885417686808
 c258: K_a8_a0 - 1221 m_a0_proc_0 - 1221 m_a8_proc_0 + w_a0 - w_a8 >= 
       -2441.885417686809
 c259: K_a8_a1 - 1221 m_a1_proc_0 - 1221 m_a8_proc_0 + w_a1 - w_a8 >= 
       -2441.885417686809
 c260: K_a8_a2 - 1221 m_a2_proc_0 - 1221 m_a8_proc_0 + w_a2 - w_a8 >= 
       -2441.885417686809
 c261: K_a8_a4 - 1221 m_a4_proc_0 - 1221 m_a8_proc_0 + w_a4 - w_a8 >= 
       -2441.885417686809
 c262: K_a8_a5 - 1221 m_a5_proc_0 - 1221 m_a8_proc_0 + w_a5 - w_a8 >= 
       -2441.885417686809
 c263: K_a8_a6 - 1221 m_a6_proc_0 - 1221 m_a8_proc_0 + w_a6 - w_a8 >= 
       -2441.885417686809
 c264: K_a8_a7 - 1221 m_a7_proc_0 - 1221 m_a8_proc_0 + w_a7 - w_a8 >= 
       -2441.885417686809
 c265: K_a8_a9 - 1221 m_a8_proc_0 - 1221 m_a9_proc_0 + w_a9 - w_a8 >= 
       -2441.885417686809
 c266: - 1221 m_a8_proc_1 + w_a1 - w_a8 >= -1220.921555185584
 c267: K_a8_a0 - 1221 m_a0_proc_1 - 1221 m_a8_proc_1 + w_a0 - w_a8 >= 
       -2441.921555185584
 c268: K_a8_a1 - 1221 m_a1_proc_1 - 1221 m_a8_proc_1 + w_a1 - w_a8 >= 
       -2441.921555185584
 c269: K_a8_a2 - 1221 m_a2_proc_1 - 1221 m_a8_proc_1 + w_a2 - w_a8 >= 
       -2441.921555185584
 c270: K_a8_a3 - 1221 m_a3_proc_1 - 1221 m_a8_proc_1 + w_a3 - w_a8 >= 
       -2441.921555185584
 c271: K_a8_a4 - 1221 m_a4_proc_1 - 1221 m_a8_proc_1 + w_a4 - w_a8 >= 
       -2441.921555185584
 c272: K_a8_a5 - 1221 m_a5_proc_1 - 1221 m_a8_proc_1 + w_a5 - w_a8 >= 
       -2441.921555185584
 c273: K_a8_a6 - 1221 m_a6_proc_1 - 1221 m_a8_proc_1 + w_a6 - w_a8 >= 
       -2441.921555185584
 c274: K_a8_a7 - 1221 m_a7_proc_1 - 1221 m_a8_proc_1 + w_a7 - w_a8 >= 
       -2441.921555185584
 c275: K_a8_a9 - 1221 m_a8_proc_1 - 1221 m_a9_proc_1 + w_a9 - w_a8 >= 
       -2441.921555185584
 c276: - 1221 m_a9_proc_0 + w_a5 - w_a9 >= -1220.922730388796
 c277: K_a9_a0 - 1221 m_a0_proc_0 - 1221 m_a9_proc_0 + w_a0 - w_a9 >= 
       -2441.922730388796
 c278: K_a9_a1 - 1221 m_a1_proc_0 - 1221 m_a9_proc_0 + w_a1 - w_a9 >= 
       -2441.922730388796
 c279: K_a9_a2 - 1221 m_a2_proc_0 - 1221 m_a9_proc_0 + w_a2 - w_a9 >= 
       -2441.922730388796
 c280: K_a9_a4 - 1221 m_a4_proc_0 - 1221 m_a9_proc_0 + w_a4 - w_a9 >= 
       -2441.922730388796
 c281: K_a9_a5 - 1221 m_a5_proc_0 - 1221 m_a9_proc_0 + w_a5 - w_a9 >= 
       -2441.922730388796
 c282: K_a9_a6 - 1221 m_a6_proc_0 - 1221 m_a9_proc_0 + w_a6 - w_a9 >= 
       -2441.922730388796
 c283: K_a9_a7 - 1221 m_a7_proc_0 - 1221 m_a9_proc_0 + w_a7 - w_a9 >= 
       -2441.922730388796
 c284: K_a9_a8 - 1221 m_a8_proc_0 - 1221 m_a9_proc_0 + w_a8 - w_a9 >= 
       -2441.922730388796
 c285: - 1221 m_a9_proc_1 + w_a5 - w_a9 >= -1220.931740280090
 c286: K_a9_a0 - 1221 m_a0_proc_1 - 1221 m_a9_proc_1 + w_a0 - w_a9 >= 
       -2441.931740280090
 c287: K_a9_a1 - 1221 m_a1_proc_1 - 1221 m_a9_proc_1 + w_a1 - w_a9 >= 
       -2441.931740280090
 c288: K_a9_a2 - 1221 m_a2_proc_1 - 1221 m_a9_proc_1 + w_a2 - w_a9 >= 
       -2441.931740280090
 c289: K_a9_a3 - 1221 m_a3_proc_1 - 1221 m_a9_proc_1 + w_a3 - w_a9 >= 
       -2441.931740280090
 c290: K_a9_a4 - 1221 m_a4_proc_1 - 1221 m_a9_proc_1 + w_a4 - w_a9 >= 
       -2441.931740280090
 c291: K_a9_a5 - 1221 m_a5_proc_1 - 1221 m_a9_proc_1 + w_a5 - w_a9 >= 
       -2441.931740280090
 c292: K_a9_a6 - 1221 m_a6_proc_1 - 1221 m_a9_proc_1 + w_a6 - w_a9 >= 
       -2441.931740280090
 c293: K_a9_a7 - 1221 m_a7_proc_1 - 1221 m_a9_proc_1 + w_a7 - w_a9 >= 
       -2441.931740280090
 c294: K_a9_a8 - 1221 m_a8_proc_1 - 1221 m_a9_proc_1 + w_a8 - w_a9 >= 
       -2441.931740280090
 c295: z - 0.000124703828 K_a6_a0 + 0.111734630253 m_a0_proc_0
       - 0.038782890635 m_a5_proc_0 + 0.152263374486 m_a6_proc_0
       - 0.097892505300 m_a6_proc_1 <= 0.304651452800

Bounds
 -inf <= K_a0_a1 <= 1000000000
 -inf <= K_a0_a2 <= 1000000000
 -inf <= K_a0_a3 <= 1000000000
 -inf <= K_a0_a4 <= 1000000000
 -inf <= K_a0_a5 <= 1000000000
 -inf <= K_a0_a6 <= 1000000000
 -inf <= K_a0_a7 <= 1000000000
 -inf <= K_a0_a8 <= 1000000000
 -inf <= K_a0_a9 <= 1000000000
 -inf <= K_a1_a0 <= 1000000000
 -inf <= K_a1_a2 <= 1000000000
 -inf <= K_a1_a3 <= 1000000000
 -inf <= K_a1_a4 <= 1000000000
 -inf <= K_a1_a5 <= 1000000000
 -inf <= K_a1_a6 <= 1000000000
 -inf <= K_a1_a7 <= 1000000000
 -inf <= K_a1_a8 <= 1000000000
 -inf <= K_a1_a9 <= 1000000000
 -inf <= K_a2_a0 <= 1000000000
 -inf <= K_a2_a1 <= 1000000000
 -inf <= K_a2_a3 <= 1000000000
 -inf <= K_a2_a4 <= 1000000000
 -inf <= K_a2_a5 <= 1000000000
 -inf <= K_a2_a6 <= 1000000000
 -inf <= K_a2_a7 <= 1000000000
 -inf <= K_a2_a8 <= 1000000000
 -inf <= K_a2_a9 <= 1000000000
 -inf <= K_a3_a0 <= 1000000000
 -inf <= K_a3_a1 <= 1000000000
 -inf <= K_a3_a2 <= 1000000000
 -inf <= K_a3_a4 <= 1000000000
 -inf <= K_a3_a5 <= 1000000000
 -inf <= K_a3_a6 <= 1000000000
 -inf <= K_a3_a7 <= 1000000000
 -inf <= K_a3_a8 <= 1000000000
 -inf <= K_a3_a9 <= 1000000000
 -inf <= K_a4_a0 <= 1000000000
 -inf <= K_a4_a1 <= 1000000000
 -inf <= K_a4_a2 <= 1000000000
 -inf <= K_a4_a3 <= 1000000000
 -inf <= K_a4_a5 <= 1000000000
 -inf <= K_a4_a6 <= 1000000000
 -inf <= K_a4_a7 <= 1000000000
 -inf <= K_a4_a8 <= 1000000000
 -inf <= K_a4_a9 <= 1000000000
 -inf <= K_a5_a0 <= 1000000000
 -inf <= K_a5_a1 <= 1000000000
 -inf <= K_a5_a2 <= 1000000000
 -inf <= K_a5_a3 <= 1000000000
 -inf <= K_a5_a4 <= 1000000000
 -inf <= K_a5_a6 <= 1000000000
 -inf <= K_a5_a7 <= 1000000000
 -inf <= K_a5_a8 <= 1000000000
 -inf <= K_a5_a9 <= 1000000000
 -inf <= K_a6_a0 <= 1000000000
 -inf <= K_a6_a1 <= 1000000000
 -inf <= K_a6_a2 <= 1000000000
 -inf <= K_a6_a3 <= 1000000000
 -inf <= K_a6_a4 <= 1000000000
 -inf <= K_a6_a5 <= 1000000000
 -inf <= K_a6_a7 <= 1000000000
 -inf <= K_a6_a8 <= 1000000000
 -inf <= K_a6_a9 <= 1000000000
 -inf <= K_a7_a0 <= 1000000000
 -inf <= K_a7_a1 <= 1000000000
 -inf <= K_a7_a2 <= 1000000000
 -inf <= K_a7_a3 <= 1000000000
 -inf <= K_a7_a4 <= 1000000000
 -inf <= K_a7_a5 <= 1000000000
 -inf <= K_a7_a6 <= 1000000000
 -inf <= K_a7_a8 <= 1000000000
 -inf <= K_a7_a9 <= 1000000000
 -inf <= K_a8_a0 <= 1000000000
 -inf <= K_a8_a1 <= 1000000000
 -inf <= K_a8_a2 <= 1000000000
 -inf <= K_a8_a3 <= 1000000000
 -inf <= K_a8_a4 <= 1000000000
 -inf <= K_a8_a5 <= 1000000000
 -inf <= K_a8_a6 <= 1000000000
 -inf <= K_a8_a7 <= 1000000000
 -inf <= K_a8_a9 <= 1000000000
 -inf <= K_a9_a0 <= 1000000000
 -inf <= K_a9_a1 <= 1000000000
 -inf <= K_a9_a2 <= 1000000000
 -inf <= K_a9_a3 <= 1000000000
 -inf <= K_a9_a4 <= 1000000000
 -inf <= K_a9_a5 <= 1000000000
 -inf <= K_a9_a6 <= 1000000000
 -inf <= K_a9_a7 <= 1000000000
 -inf <= K_a9_a8 <= 1000000000
 0 <= m_a0_proc_0 <= 1
 0 <= m_a0_proc_1 <= 1
 0 <= m_a1_proc_0 <= 1
 0 <= m_a1_proc_1 <= 1
 0 <= m_a2_proc_0 <= 1
 0 <= m_a2_proc_1 <= 1
 0 <= m_a3_proc_1 <= 1
 0 <= m_a4_proc_0 <= 1
 0 <= m_a4_proc_1 <= 1
 0 <= m_a5_proc_0 <= 1
 0 <= m_a5_proc_1 <= 1
 0 <= m_a6_proc_0 <= 1
 0 <= m_a6_proc_1 <= 1
 0 <= m_a7_proc_0 <= 1
 0 <= m_a7_proc_1 <= 1
 0 <= m_a8_proc_0 <= 1
 0 <= m_a8_proc_1 <= 1
 0 <= m_a9_proc_0 <= 1
 0 <= m_a9_proc_1 <= 1

Binaries
 m_a0_proc_0 m_a0_proc_1 m_a1_proc_0 m_a1_proc_1 m_a2_proc_0 m_a2_proc_1
 m_a3_proc_1 m_a4_proc_0 m_a4_proc_1 m_a5_proc_0 m_a5_proc_1 m_a6_proc_0
 m_a6_proc_1 m_a7_proc_0 m_a7_proc_1 m_a8_proc_0 m_a8_proc_1 m_a9_proc_0
 m_a9_proc_1

Generals
 K_a0_a1 K_a0_a2 K_a0_a3 K_a0_a4 K_a0_a5 K_a0_a6 K_a0_a7 K_a0_a8 K_a0_a9 K_a1_a0
 K_a1_a2 K_a1_a3 K_a1_a4 K_a1_a5 K_a1_a6 K_a1_a7 K_a1_a8 K_a1_a9 K_a2_a0 K_a2_a1
 K_a2_a3 K_a2_a4 K_a2_a5 K_a2_a6 K_a2_a7 K_a2_a8 K_a2_a9 K_a3_a0 K_a3_a1 K_a3_a2
 K_a3_a4 K_a3_a5 K_a3_a6 K_a3_a7 K_a3_a8 K_a3_a9 K_a4_a0 K_a4_a1 K_a4_a2 K_a4_a3
 K_a4_a5 K_a4_a6 K_a4_a7 K_a4_a8 K_a4_a9 K_a5_a0 K_a5_a1 K_a5_a2 K_a5_a3 K_a5_a4
 K_a5_a6 K_a5_a7 K_a5_a8 K_a5_a9 K_a6_a0 K_a6_a1 K_a6_a2 K_a6_a3 K_a6_a4 K_a6_a5
 K_a6_a7 K_a6_a8 K_a6_a9 K_a7_a0 K_a7_a1 K_a7_a2 K_a7_a3 K_a7_a4 K_a7_a5 K_a7_a6
 K_a7_a8 K_a7_a9 K_a8_a0 K_a8_a1 K_a8_a2 K_a8_a3 K_a8_a4 K_a8_a5 K_a8_a6 K_a8_a7
 K_a8_a9 K_a9_a0 K_a9_a1 K_a9_a2 K_a9_a3 K_a9_a4 K_a9_a5 K_a9_a6 K_a9_a7 K_a9_a8
End
