benchmark/results/graph__10-1000-0.10-02_8/error_log/graph__10-1000-0.10-02_8_Quinton_Benders_master_ERRORLOG.txt
solution for: Quinton Benders_master
objective: 124704
status: OPTIMAL_SOLUTION(2)
K_a0_a1=1221
K_a0_a3=-999999998
K_a0_a4=1221
K_a0_a5=1221
K_a0_a6=-999999999
K_a0_a8=1221
K_a0_a9=1221
K_a1_a0=-1220
K_a1_a2=1221
K_a1_a3=-999998776
K_a1_a4=1
K_a1_a5=1
K_a1_a6=-999998777
K_a1_a7=1222
K_a1_a8=1
K_a1_a9=1
K_a2_a0=1
K_a2_a1=-1220
K_a2_a3=-999999997
K_a2_a4=1222
K_a2_a5=1222
K_a2_a6=-999999998
K_a2_a7=1
K_a2_a8=1222
K_a2_a9=1222
K_a3_a0=999999999
K_a3_a1=999998777
K_a3_a2=999999998
K_a3_a4=1000000000
K_a3_a5=1000000000
K_a3_a7=999999998
K_a3_a8=1000000000
K_a3_a9=1000000000
K_a4_a0=-1220
K_a4_a2=-1221
K_a4_a3=-999999999
K_a4_a5=1
K_a4_a6=-999998777
K_a4_a7=1222
K_a4_a8=1
K_a4_a9=1
K_a5_a0=-1220
K_a5_a2=-1221
K_a5_a3=-999999999
K_a5_a6=-999998777
K_a5_a7=1221
K_a5_a8=1
K_a5_a9=1
K_a6_a0=1000000000
K_a6_a1=999998778
K_a6_a2=999999999
K_a6_a3=1
K_a6_a4=999998778
K_a6_a5=999998778
K_a6_a7=999999999
K_a6_a8=1000000000
K_a6_a9=1000000000
K_a7_a0=1
K_a7_a1=-1221
K_a7_a3=-999999997
K_a7_a4=-1221
K_a7_a5=-1220
K_a7_a6=-999999998
K_a7_a8=1222
K_a7_a9=1222
K_a8_a0=-1220
K_a8_a2=-1221
K_a8_a3=-999999999
K_a8_a6=-999999999
K_a8_a7=-1221
K_a8_a9=1
K_a9_a0=-1220
K_a9_a2=-1221
K_a9_a3=-999999999
K_a9_a6=-999999999
K_a9_a7=-1221
m_a0_proc_1=1
m_a1_proc_0=1
m_a2_proc_1=1
m_a3_proc_1=1
m_a4_proc_0=1
m_a5_proc_0=1
m_a5_proc_1=-0
m_a6_proc_1=1
m_a7_proc_1=1
m_a8_proc_0=1
m_a9_proc_0=1
z=124704.270
w_a1=0.902
w_a2=0.911
w_a3=999999998.204
w_a4=0.815
w_a5=0.276
w_a6=999999999.084
w_a7=0.702
w_a8=0.162
w_a9=0.084
